g3 0 1 0	# problem d5n8R2R6d001d1
 8 7 1 0 2	# vars, constraints, objectives, ranges, eqns
 3 1	# nonlinear constraints, objectives
 0 0	# network constraints: nonlinear, linear
 8 8 8	# nonlinear vars in constraints, objectives, both
 0 0 0 1	# linear network variables; functions; arith, flags
 0 0 0 0 0	# discrete variables: binary, integer, nonlinear (b,c,o)
 56 8	# nonzeros in Jacobian, gradients
 0 0	# max name lengths: constraints, variables
 0 0 0 0 0	# common exprs: b,c,o,c1,o1
b
0 0.86 2.84
0 0.23 2.67
0 0.15 2.91
0 0.93 2.82
0 0.37 2.25
0 0.05 2.7
0 0.99 2.6
0 0.35 2.7
r
2 114.402
2 257.559
2 465.761
4 43.293
4 49.376
2 64.894
2 62.808
C0
o0
o2
o2
o2
n5.76
v0
v3
v4
o2
o2
o2
n0.75
v0
v3
v5
C1
o54
5
o2
o2
o2
n8.98
v0
v3
v4
o2
o2
o2
n3.84
v0
v3
v5
o2
o2
o2
o2
n8.8
v0
v1
v2
v2
o2
o2
o2
o2
n7.3
v2
v2
v2
v5
o2
o2
o2
o2
n8.03
v5
v6
v6
v7
C2
o54
13
o2
o2
o2
n6.53
v0
v3
v4
o2
o2
o2
n9.11
v0
v3
v5
o2
o2
o2
o2
n6.12
v0
v1
v2
v2
o16
o2
o2
o2
o2
n1.72
v2
v2
v2
v5
o2
o2
o2
o2
n3.47
v5
v6
v6
v7
o2
o2
o2
o2
o2
n3.94
v0
v0
v3
v6
v7
o2
o2
o2
o2
o2
n7.36
v1
v3
v3
v5
v7
o2
o2
o2
o2
o2
n6.27
v2
v2
v4
v4
v4
o2
o2
o2
o2
o2
n4.99
v2
v3
v3
v3
v5
o16
o2
o2
o2
o2
o2
n8.32
v2
v6
v6
v6
v6
o2
o2
o2
o2
o2
n5.16
v3
v3
v4
v4
v4
o2
o2
o2
o2
o2
n9.6
v3
v3
v4
v5
v6
o2
o2
o2
o2
o2
n7.61
v4
v5
v5
v6
v6
C3
n0
C4
n0
C5
n0
C6
n0
O0 0
o54
13
o2
o2
o2
n6.67
v0
v3
v4
o2
o2
o2
n0.07
v0
v3
v5
o2
o2
o2
o2
n6.34
v0
v1
v2
v2
o2
o2
o2
o2
n7.99
v2
v2
v2
v5
o2
o2
o2
o2
n3.05
v5
v6
v6
v7
o2
o2
o2
o2
o2
n2.86
v0
v0
v3
v6
v7
o2
o2
o2
o2
o2
n4.92
v1
v3
v3
v5
v7
o16
o2
o2
o2
o2
o2
n9.18
v2
v2
v4
v4
v4
o2
o2
o2
o2
o2
n7.45
v2
v3
v3
v3
v5
o2
o2
o2
o2
o2
n0.27
v2
v6
v6
v6
v6
o2
o2
o2
o2
o2
n3.49
v3
v3
v4
v4
v4
o16
o2
o2
o2
o2
o2
n0.06
v3
v3
v4
v5
v6
o2
o2
o2
o2
o2
n2.42
v4
v5
v5
v6
v6
k7
7
14
21
28
35
42
49
J0 8
0 9.17
1 8.63
2 5.83
3 8.16
4 8.6
5 -4.99
6 9.37
7 6.38
J1 8
0 1.6
1 4.3
2 8.77
3 0.38
4 4.61
5 8.37
6 3.82
7 3.44
J2 8
0 3.06
1 8.2
2 1.09
3 -3.29
4 5.1
5 -9.21
6 0.88
7 1.33
J3 8
0 8.32
1 2.3
2 4.74
3 -8.19
4 2.8
5 4.81
6 9.38
7 3.64
J4 8
0 3.52
1 9.66
2 -7.16
3 7.37
4 6.48
5 3.32
6 7.65
7 -0.52
J5 8
0 -0.08
1 0.9
2 9.95
3 0.61
4 5.67
5 6.41
6 9.16
7 9.63
J6 8
0 8.26
1 4.41
2 2.04
3 7.92
4 5.02
5 0.88
6 4.36
7 4.95
G0 8
0 3.72
1 2.89
2 9.19
3 2.48
4 0.78
5 4.32
6 8.62
7 8.1
